p cnf 72 216
36  0
-34  72  36  0
-72  34  36  0
72  34  -36  0
-34  -72  -36  0
-65  56  34  0
-56  65  34  0
56  65  -34  0
-65  -56  -34  0
-33  0
-32  71  33  0
-71  32  33  0
71  32  -33  0
-32  -71  -33  0
-64  55  32  0
-55  64  32  0
55  64  -32  0
-64  -55  -32  0
31  0
-30  70  31  0
-70  30  31  0
70  30  -31  0
-30  -70  -31  0
-63  54  30  0
-54  63  30  0
54  63  -30  0
-63  -54  -30  0
-29  0
-28  69  29  0
-69  28  29  0
69  28  -29  0
-28  -69  -29  0
-62  53  28  0
-53  62  28  0
53  62  -28  0
-62  -53  -28  0
27  0
-26  68  27  0
-68  26  27  0
68  26  -27  0
-26  -68  -27  0
-60  52  26  0
-52  60  26  0
52  60  -26  0
-60  -52  -26  0
-25  0
-24  67  25  0
-67  24  25  0
67  24  -25  0
-24  -67  -25  0
-59  51  24  0
-51  59  24  0
51  59  -24  0
-59  -51  -24  0
-23  0
-22  66  23  0
-66  22  23  0
66  22  -23  0
-22  -66  -23  0
-58  72  22  0
-72  58  22  0
72  58  -22  0
-58  -72  -22  0
21  0
-20  61  21  0
-61  20  21  0
61  20  -21  0
-20  -61  -21  0
-57  71  20  0
-71  57  20  0
71  57  -20  0
-57  -71  -20  0
-19  0
-17  50  19  0
-50  17  19  0
50  17  -19  0
-17  -50  -19  0
-56  70  17  0
-70  56  17  0
70  56  -17  0
-56  -70  -17  0
16  0
-15  49  16  0
-49  15  16  0
49  15  -16  0
-15  -49  -16  0
-55  69  15  0
-69  55  15  0
69  55  -15  0
-55  -69  -15  0
14  0
-13  65  14  0
-65  13  14  0
65  13  -14  0
-13  -65  -14  0
-54  68  13  0
-68  54  13  0
68  54  -13  0
-54  -68  -13  0
12  0
-11  64  12  0
-64  11  12  0
64  11  -12  0
-11  -64  -12  0
-53  67  11  0
-67  53  11  0
67  53  -11  0
-53  -67  -11  0
10  0
-9  63  10  0
-63  9  10  0
63  9  -10  0
-9  -63  -10  0
-52  66  9  0
-66  52  9  0
66  52  -9  0
-52  -66  -9  0
8  0
-7  62  8  0
-62  7  8  0
62  7  -8  0
-7  -62  -8  0
-51  61  7  0
-61  51  7  0
61  51  -7  0
-51  -61  -7  0
-6  0
-5  60  6  0
-60  5  6  0
60  5  -6  0
-5  -60  -6  0
-72  50  5  0
-50  72  5  0
50  72  -5  0
-72  -50  -5  0
4  0
-3  59  4  0
-59  3  4  0
59  3  -4  0
-3  -59  -4  0
-71  49  3  0
-49  71  3  0
49  71  -3  0
-71  -49  -3  0
-2  0
-48  58  2  0
-58  48  2  0
58  48  -2  0
-48  -58  -2  0
-70  65  48  0
-65  70  48  0
65  70  -48  0
-70  -65  -48  0
-47  0
-46  57  47  0
-57  46  47  0
57  46  -47  0
-46  -57  -47  0
-69  64  46  0
-64  69  46  0
64  69  -46  0
-69  -64  -46  0
-45  0
-44  56  45  0
-56  44  45  0
56  44  -45  0
-44  -56  -45  0
-68  63  44  0
-63  68  44  0
63  68  -44  0
-68  -63  -44  0
-43  0
-42  55  43  0
-55  42  43  0
55  42  -43  0
-42  -55  -43  0
-67  62  42  0
-62  67  42  0
62  67  -42  0
-67  -62  -42  0
-41  0
-40  54  41  0
-54  40  41  0
54  40  -41  0
-40  -54  -41  0
-66  60  40  0
-60  66  40  0
60  66  -40  0
-66  -60  -40  0
39  0
-38  53  39  0
-53  38  39  0
53  38  -39  0
-38  -53  -39  0
-61  59  38  0
-59  61  38  0
59  61  -38  0
-61  -59  -38  0
-37  0
-35  52  37  0
-52  35  37  0
52  35  -37  0
-35  -52  -37  0
-50  58  35  0
-58  50  35  0
58  50  -35  0
-50  -58  -35  0
18  0
-1  51  18  0
-51  1  18  0
51  1  -18  0
-1  -51  -18  0
-49  57  1  0
-57  49  1  0
57  49  -1  0
-49  -57  -1  0
